NAME          
ROWS
 N  OBJ
 L  c1
 L  c2
 L  c3
COLUMNS
    MARKER    'MARKER'                 'INTORG'
    x[1]      c1        855
    x[1]      c2        173
    x[1]      c3        337
    x[1]      OBJ       -683
    x[2]      c1        226
    x[2]      c2        959
    x[2]      c3        90
    x[2]      OBJ       -968
    x[3]      c1        299
    x[3]      c2        963
    x[3]      c3        449
    x[3]      OBJ       -911
    x[4]      c1        710
    x[4]      c2        416
    x[4]      c3        175
    x[4]      OBJ       -170
    x[5]      c1        194
    x[5]      c2        249
    x[5]      c3        442
    x[5]      OBJ       -436
    x[6]      c1        730
    x[6]      c2        635
    x[6]      c3        222
    x[6]      OBJ       -518
    x[7]      c1        179
    x[7]      c2        28
    x[7]      c3        598
    x[7]      OBJ       -188
    x[8]      c1        773
    x[8]      c2        982
    x[8]      c3        264
    x[8]      OBJ       -525
    x[9]      c1        940
    x[9]      c2        212
    x[9]      c3        147
    x[9]      OBJ       -685
    x[10]     c1        937
    x[10]     c2        780
    x[10]     c3        976
    x[10]     OBJ       -143
    x[11]     c1        754
    x[11]     c2        192
    x[11]     c3        429
    x[11]     OBJ       -668
    x[12]     c1        493
    x[12]     c2        833
    x[12]     c3        882
    x[12]     OBJ       -315
    x[13]     c1        409
    x[13]     c2        478
    x[13]     c3        392
    x[13]     OBJ       -336
    x[14]     c1        846
    x[14]     c2        238
    x[14]     c3        863
    x[14]     OBJ       -464
    x[15]     c1        923
    x[15]     c2        852
    x[15]     c3        199
    x[15]     OBJ       -804
    x[16]     c1        283
    x[16]     c2        822
    x[16]     c3        668
    x[16]     OBJ       -803
    x[17]     c1        516
    x[17]     c2        101
    x[17]     c3        578
    x[17]     OBJ       -356
    x[18]     c1        846
    x[18]     c2        327
    x[18]     c3        225
    x[18]     OBJ       -479
    x[19]     c1        347
    x[19]     c2        126
    x[19]     c3        981
    x[19]     OBJ       -444
    x[20]     c1        130
    x[20]     c2        507
    x[20]     c3        207
    x[20]     OBJ       -197
    x[21]     c1        397
    x[21]     c2        615
    x[21]     c3        908
    x[21]     OBJ       -384
    x[22]     c1        185
    x[22]     c2        911
    x[22]     c3        155
    x[22]     OBJ       -123
    x[23]     c1        746
    x[23]     c2        258
    x[23]     c3        777
    x[23]     OBJ       -947
    x[24]     c1        947
    x[24]     c2        398
    x[24]     c3        795
    x[24]     OBJ       -669
    x[25]     c1        425
    x[25]     c2        814
    x[25]     c3        250
    x[25]     OBJ       -775
    x[26]     c1        436
    x[26]     c2        11
    x[26]     c3        383
    x[26]     OBJ       -780
    x[27]     c1        312
    x[27]     c2        854
    x[27]     c3        400
    x[27]     OBJ       -433
    x[28]     c1        366
    x[28]     c2        972
    x[28]     c3        786
    x[28]     OBJ       -675
    x[29]     c1        194
    x[29]     c2        653
    x[29]     c3        629
    x[29]     OBJ       -879
    x[30]     c1        693
    x[30]     c2        266
    x[30]     c3        88
    x[30]     OBJ       -667
    x[31]     c1        91
    x[31]     c2        962
    x[31]     c3        674
    x[31]     OBJ       -25
    x[32]     c1        66
    x[32]     c2        154
    x[32]     c3        294
    x[32]     OBJ       -255
    x[33]     c1        740
    x[33]     c2        394
    x[33]     c3        204
    x[33]     OBJ       -635
    x[34]     c1        847
    x[34]     c2        398
    x[34]     c3        763
    x[34]     OBJ       -70
    x[35]     c1        472
    x[35]     c2        369
    x[35]     c3        294
    x[35]     OBJ       -262
    x[36]     c1        886
    x[36]     c2        329
    x[36]     c3        40
    x[36]     OBJ       -64
    x[37]     c1        920
    x[37]     c2        646
    x[37]     c3        141
    x[37]     OBJ       -355
    x[38]     c1        293
    x[38]     c2        477
    x[38]     c3        557
    x[38]     OBJ       -327
    x[39]     c1        517
    x[39]     c2        375
    x[39]     c3        311
    x[39]     OBJ       -140
    x[40]     c1        164
    x[40]     c2        587
    x[40]     c3        529
    x[40]     OBJ       -708
RHS
    rhs       c1        10544
    rhs       c2        10158
    rhs       c3        9051
RANGES
BOUNDS
 BV bounds    x[1]
 BV bounds    x[2]
 BV bounds    x[3]
 BV bounds    x[4]
 BV bounds    x[5]
 BV bounds    x[6]
 BV bounds    x[7]
 BV bounds    x[8]
 BV bounds    x[9]
 BV bounds    x[10]
 BV bounds    x[11]
 BV bounds    x[12]
 BV bounds    x[13]
 BV bounds    x[14]
 BV bounds    x[15]
 BV bounds    x[16]
 BV bounds    x[17]
 BV bounds    x[18]
 BV bounds    x[19]
 BV bounds    x[20]
 BV bounds    x[21]
 BV bounds    x[22]
 BV bounds    x[23]
 BV bounds    x[24]
 BV bounds    x[25]
 BV bounds    x[26]
 BV bounds    x[27]
 BV bounds    x[28]
 BV bounds    x[29]
 BV bounds    x[30]
 BV bounds    x[31]
 BV bounds    x[32]
 BV bounds    x[33]
 BV bounds    x[34]
 BV bounds    x[35]
 BV bounds    x[36]
 BV bounds    x[37]
 BV bounds    x[38]
 BV bounds    x[39]
 BV bounds    x[40]
ENDATA
